data/solutions/recovery/degenerate/moderate/flexible/degenerate_moderate_instance1/9.sol
Elapsed time: 0.11
Upper bound: 237477.0
Planning weighted value: 1656544.0
C[0]=237477.0
C[1]=237074.0
C[2]=236585.0
y[0]=2
y[1]=2
y[2]=0
y[3]=0
y[4]=1
y[5]=1
y[6]=1
y[7]=1
y[8]=0
y[9]=1
y[10]=0
y[11]=1
y[12]=2
y[13]=0
y[14]=2
y[15]=1
y[16]=1
y[17]=0
y[18]=1
y[19]=2
y[20]=2
y[21]=1
