data/solutions/recovery/degenerate/moderate/flexible/degenerate_moderate_instance1/9.log

Log started (V12.6.3.0) Sat Apr 21 11:01:57 2018

New value for default parallel thread count: 1

Problem '/tmp/tmpUz7_eD.pyomo.lp' read.
Read time = 0.00 sec. (0.02 ticks)

Problem name         : /tmp/tmpUz7_eD.pyomo.lp
Objective sense      : Minimize
Variables            :      71  [Nneg: 1,  Binary: 66,  General Integer: 4]
Objective nonzeros   :       1
Linear constraints   :      51  [Less: 25,  Equal: 26]
  Nonzeros           :    1019
  RHS nonzeros       :      45

Variables            : Min LB: 0.000000         Max UB: 1.000000       
Objective nonzeros   : Min   : 1.000000         Max   : 1.000000       
Linear constraints   :
  Nonzeros           : Min   : 1.000000         Max   : 93707.00       
  RHS nonzeros       : Min   : 1.000000         Max   : 3.000000       
Tried aggregator 2 times.
MIP Presolve eliminated 22 rows and 3 columns.
Aggregator did 4 substitutions.
Reduced MIP has 25 rows, 64 columns, and 167 nonzeros.
Reduced MIP has 63 binaries, 1 generals, 0 SOSs, and 0 indicators.
Presolve time = 0.00 sec. (0.42 ticks)
Found incumbent of value 711136.000000 after 0.00 sec. (0.63 ticks)
Probing time = 0.00 sec. (0.04 ticks)
Cover probing fixed 0 vars, tightened 6 bounds.
Tried aggregator 1 time.
Reduced MIP has 25 rows, 64 columns, and 167 nonzeros.
Reduced MIP has 63 binaries, 1 generals, 0 SOSs, and 0 indicators.
Presolve time = 0.00 sec. (0.10 ticks)
Probing time = 0.00 sec. (0.03 ticks)
Clique table members: 21.
MIP emphasis: balance optimality and feasibility.
MIP search method: dynamic search.
Parallel mode: none, using 1 thread.
Root relaxation solution time = 0.00 sec. (0.05 ticks)

        Nodes                                         Cuts/
   Node  Left     Objective  IInf  Best Integer    Best Bound    ItCnt     Gap

*     0+    0                       711136.0000    93707.0000            86.82%
      0     0   237045.3333     4   711136.0000   237045.3333        3   66.67%
*     0+    0                       266065.0000   237045.3333            10.91%
      0     0   237046.0000     6   266065.0000      Fract: 3       11   10.91%
*     0+    0                       262011.0000   237046.0000             9.53%
      0     0   237046.0000     6   262011.0000       Cuts: 7       18    9.53%
*     0+    0                       240654.0000   237046.0000             1.50%
*     0+    0                       240316.0000   237046.0000             1.36%
      0     2   237046.0000     6   240316.0000   237046.0000       18    1.36%
Elapsed time = 0.00 sec. (2.03 ticks, tree = 0.01 MB, solutions = 4)
*     9     5      integral     0   238223.0000   237046.0000       55    0.49%
*    75    31      integral     0   237549.0000   237046.0000      253    0.21%
*   690+   99                       237487.0000   237046.0000             0.19%
*  1084    71      integral     0   237477.0000   237046.0000     4141    0.18%

Cover cuts applied:  40
Mixed integer rounding cuts applied:  3
Gomory fractional cuts applied:  2

Root node processing (before b&c):
  Real time             =    0.00 sec. (2.02 ticks)
Sequential b&c:
  Real time             =    0.07 sec. (56.48 ticks)
                          ------------
Total (root+branch&cut) =    0.08 sec. (58.51 ticks)

Solution pool: 8 solutions saved.

MIP - Integer optimal, tolerance (0.0001/1e-06):  Objective =  2.3747700000e+05
Current MIP best bound =  2.3747598318e+05 (gap = 1.01682, 0.00%)
Solution time =    0.08 sec.  Iterations = 4969  Nodes = 1340 (1)
Deterministic time = 58.51 ticks  (771.90 ticks/sec)


Incumbent solution written to file '/tmp/tmpjC36aI.cplex.sol'.
